\ LP format - for model browsing. Use MPS format to capture full model detail.
Minimize
  0.0005 pres_rt(ng101,s1,t1) + 5000 gshed(ng101,s1,t1)
   - 0.0005 pres_rt(ng102,s1,t1) + 5000 gshed(ng102,s1,t1)
   + 1.65 gprodUp(gw1,s1,t1) - 1.425 gprodDn(gw1,s1,t1)
   + 0.0005 pres_rt(ng101,s1,t2) + 5000 gshed(ng101,s1,t2)
   - 0.0005 pres_rt(ng102,s1,t2) + 5000 gshed(ng102,s1,t2)
   + 2.2 gprodUp(gw1,s1,t2) - 1.9 gprodDn(gw1,s1,t2)
   + 0 pres_rt(ng101,s1,t3) + 0 gshed(ng101,s1,t3) + 0 pres_rt(ng102,s1,t3)
   + 0 gshed(ng102,s1,t3) + 0 gflow_sr_rt(('ng101','ng102'),s1,t3)
   + 0 lpack_rt(('ng101','ng102'),s1,t3)
   + 0 qin_sr_rt(('ng101','ng102'),s1,t3)
   + 0 qout_sr_rt(('ng101','ng102'),s1,t3) + 0 gprodUp(gw1,s1,t3)
   + 0 gprodDn(gw1,s1,t3) + 0 gsin_rt(gs1,s1,t3) + 0 gsout_rt(gs1,s1,t3)
   + 0 gstore_rt(gs1,s1,t3) + 0 pres_rt(ng101,s1,t4) + 0 gshed(ng101,s1,t4)
   + 0 pres_rt(ng102,s1,t4) + 0 gshed(ng102,s1,t4)
   + 0 gflow_sr_rt(('ng101','ng102'),s1,t4)
   + 0 lpack_rt(('ng101','ng102'),s1,t4)
   + 0 qin_sr_rt(('ng101','ng102'),s1,t4)
   + 0 qout_sr_rt(('ng101','ng102'),s1,t4) + 0 gprodUp(gw1,s1,t4)
   + 0 gprodDn(gw1,s1,t4) + 0 gsin_rt(gs1,s1,t4) + 0 gsout_rt(gs1,s1,t4)
   + 0 gstore_rt(gs1,s1,t4) + 0 pres_rt(ng101,s1,t5) + 0 gshed(ng101,s1,t5)
   + 0 pres_rt(ng102,s1,t5) + 0 gshed(ng102,s1,t5)
   + 0 gflow_sr_rt(('ng101','ng102'),s1,t5)
   + 0 lpack_rt(('ng101','ng102'),s1,t5)
   + 0 qin_sr_rt(('ng101','ng102'),s1,t5)
   + 0 qout_sr_rt(('ng101','ng102'),s1,t5) + 0 gprodUp(gw1,s1,t5)
   + 0 gprodDn(gw1,s1,t5) + 0 gsin_rt(gs1,s1,t5) + 0 gsout_rt(gs1,s1,t5)
   + 0 gstore_rt(gs1,s1,t5) + 0 pres_rt(ng101,s1,t6) + 0 gshed(ng101,s1,t6)
   + 0 pres_rt(ng102,s1,t6) + 0 gshed(ng102,s1,t6)
   + 0 gflow_sr_rt(('ng101','ng102'),s1,t6)
   + 0 lpack_rt(('ng101','ng102'),s1,t6)
   + 0 qin_sr_rt(('ng101','ng102'),s1,t6)
   + 0 qout_sr_rt(('ng101','ng102'),s1,t6) + 0 gprodUp(gw1,s1,t6)
   + 0 gprodDn(gw1,s1,t6) + 0 gsin_rt(gs1,s1,t6) + 0 gsout_rt(gs1,s1,t6)
   + 0 gstore_rt(gs1,s1,t6) + 0 pres_rt(ng101,s1,t7) + 0 gshed(ng101,s1,t7)
   + 0 pres_rt(ng102,s1,t7) + 0 gshed(ng102,s1,t7)
   + 0 gflow_sr_rt(('ng101','ng102'),s1,t7)
   + 0 lpack_rt(('ng101','ng102'),s1,t7)
   + 0 qin_sr_rt(('ng101','ng102'),s1,t7)
   + 0 qout_sr_rt(('ng101','ng102'),s1,t7) + 0 gprodUp(gw1,s1,t7)
   + 0 gprodDn(gw1,s1,t7) + 0 gsin_rt(gs1,s1,t7) + 0 gsout_rt(gs1,s1,t7)
   + 0 gstore_rt(gs1,s1,t7) + 0 pres_rt(ng101,s1,t8) + 0 gshed(ng101,s1,t8)
   + 0 pres_rt(ng102,s1,t8) + 0 gshed(ng102,s1,t8)
   + 0 gflow_sr_rt(('ng101','ng102'),s1,t8)
   + 0 lpack_rt(('ng101','ng102'),s1,t8)
   + 0 qin_sr_rt(('ng101','ng102'),s1,t8)
   + 0 qout_sr_rt(('ng101','ng102'),s1,t8) + 0 gprodUp(gw1,s1,t8)
   + 0 gprodDn(gw1,s1,t8) + 0 gsin_rt(gs1,s1,t8) + 0 gsout_rt(gs1,s1,t8)
   + 0 gstore_rt(gs1,s1,t8) + 0 pres_rt(ng101,s1,t9) + 0 gshed(ng101,s1,t9)
   + 0 pres_rt(ng102,s1,t9) + 0 gshed(ng102,s1,t9)
   + 0 gflow_sr_rt(('ng101','ng102'),s1,t9)
   + 0 lpack_rt(('ng101','ng102'),s1,t9)
   + 0 qin_sr_rt(('ng101','ng102'),s1,t9)
   + 0 qout_sr_rt(('ng101','ng102'),s1,t9) + 0 gprodUp(gw1,s1,t9)
   + 0 gprodDn(gw1,s1,t9) + 0 gsin_rt(gs1,s1,t9) + 0 gsout_rt(gs1,s1,t9)
   + 0 gstore_rt(gs1,s1,t9) + 0 pres_rt(ng101,s1,t10)
   + 0 gshed(ng101,s1,t10) + 0 pres_rt(ng102,s1,t10)
   + 0 gshed(ng102,s1,t10) + 0 gflow_sr_rt(('ng101','ng102'),s1,t10)
   + 0 lpack_rt(('ng101','ng102'),s1,t10)
   + 0 qin_sr_rt(('ng101','ng102'),s1,t10)
   + 0 qout_sr_rt(('ng101','ng102'),s1,t10) + 0 gprodUp(gw1,s1,t10)
   + 0 gprodDn(gw1,s1,t10) + 0 gsin_rt(gs1,s1,t10) + 0 gsout_rt(gs1,s1,t10)
   + 0 gstore_rt(gs1,s1,t10) + 0 pres_rt(ng101,s1,t11)
   + 0 gshed(ng101,s1,t11) + 0 pres_rt(ng102,s1,t11)
   + 0 gshed(ng102,s1,t11) + 0 gflow_sr_rt(('ng101','ng102'),s1,t11)
   + 0 lpack_rt(('ng101','ng102'),s1,t11)
   + 0 qin_sr_rt(('ng101','ng102'),s1,t11)
   + 0 qout_sr_rt(('ng101','ng102'),s1,t11) + 0 gprodUp(gw1,s1,t11)
   + 0 gprodDn(gw1,s1,t11) + 0 gsin_rt(gs1,s1,t11) + 0 gsout_rt(gs1,s1,t11)
   + 0 gstore_rt(gs1,s1,t11) + 0 pres_rt(ng101,s1,t12)
   + 0 gshed(ng101,s1,t12) + 0 pres_rt(ng102,s1,t12)
   + 0 gshed(ng102,s1,t12) + 0 gflow_sr_rt(('ng101','ng102'),s1,t12)
   + 0 lpack_rt(('ng101','ng102'),s1,t12)
   + 0 qin_sr_rt(('ng101','ng102'),s1,t12)
   + 0 qout_sr_rt(('ng101','ng102'),s1,t12) + 0 gprodUp(gw1,s1,t12)
   + 0 gprodDn(gw1,s1,t12) + 0 gsin_rt(gs1,s1,t12) + 0 gsout_rt(gs1,s1,t12)
   + 0 gstore_rt(gs1,s1,t12) + 0 pres_rt(ng101,s1,t13)
   + 0 gshed(ng101,s1,t13) + 0 pres_rt(ng102,s1,t13)
   + 0 gshed(ng102,s1,t13) + 0 gflow_sr_rt(('ng101','ng102'),s1,t13)
   + 0 lpack_rt(('ng101','ng102'),s1,t13)
   + 0 qin_sr_rt(('ng101','ng102'),s1,t13)
   + 0 qout_sr_rt(('ng101','ng102'),s1,t13) + 0 gprodUp(gw1,s1,t13)
   + 0 gprodDn(gw1,s1,t13) + 0 gsin_rt(gs1,s1,t13) + 0 gsout_rt(gs1,s1,t13)
   + 0 gstore_rt(gs1,s1,t13) + 0 pres_rt(ng101,s1,t14)
   + 0 gshed(ng101,s1,t14) + 0 pres_rt(ng102,s1,t14)
   + 0 gshed(ng102,s1,t14) + 0 gflow_sr_rt(('ng101','ng102'),s1,t14)
   + 0 lpack_rt(('ng101','ng102'),s1,t14)
   + 0 qin_sr_rt(('ng101','ng102'),s1,t14)
   + 0 qout_sr_rt(('ng101','ng102'),s1,t14) + 0 gprodUp(gw1,s1,t14)
   + 0 gprodDn(gw1,s1,t14) + 0 gsin_rt(gs1,s1,t14) + 0 gsout_rt(gs1,s1,t14)
   + 0 gstore_rt(gs1,s1,t14) + 0 pres_rt(ng101,s1,t15)
   + 0 gshed(ng101,s1,t15) + 0 pres_rt(ng102,s1,t15)
   + 0 gshed(ng102,s1,t15) + 0 gflow_sr_rt(('ng101','ng102'),s1,t15)
   + 0 lpack_rt(('ng101','ng102'),s1,t15)
   + 0 qin_sr_rt(('ng101','ng102'),s1,t15)
   + 0 qout_sr_rt(('ng101','ng102'),s1,t15) + 0 gprodUp(gw1,s1,t15)
   + 0 gprodDn(gw1,s1,t15) + 0 gsin_rt(gs1,s1,t15) + 0 gsout_rt(gs1,s1,t15)
   + 0 gstore_rt(gs1,s1,t15) + 0 pres_rt(ng101,s1,t16)
   + 0 gshed(ng101,s1,t16) + 0 pres_rt(ng102,s1,t16)
   + 0 gshed(ng102,s1,t16) + 0 gflow_sr_rt(('ng101','ng102'),s1,t16)
   + 0 lpack_rt(('ng101','ng102'),s1,t16)
   + 0 qin_sr_rt(('ng101','ng102'),s1,t16)
   + 0 qout_sr_rt(('ng101','ng102'),s1,t16) + 0 gprodUp(gw1,s1,t16)
   + 0 gprodDn(gw1,s1,t16) + 0 gsin_rt(gs1,s1,t16) + 0 gsout_rt(gs1,s1,t16)
   + 0 gstore_rt(gs1,s1,t16) + 0 pres_rt(ng101,s1,t17)
   + 0 gshed(ng101,s1,t17) + 0 pres_rt(ng102,s1,t17)
   + 0 gshed(ng102,s1,t17) + 0 gflow_sr_rt(('ng101','ng102'),s1,t17)
   + 0 lpack_rt(('ng101','ng102'),s1,t17)
   + 0 qin_sr_rt(('ng101','ng102'),s1,t17)
   + 0 qout_sr_rt(('ng101','ng102'),s1,t17) + 0 gprodUp(gw1,s1,t17)
   + 0 gprodDn(gw1,s1,t17) + 0 gsin_rt(gs1,s1,t17) + 0 gsout_rt(gs1,s1,t17)
   + 0 gstore_rt(gs1,s1,t17) + 0 pres_rt(ng101,s1,t18)
   + 0 gshed(ng101,s1,t18) + 0 pres_rt(ng102,s1,t18)
   + 0 gshed(ng102,s1,t18) + 0 gflow_sr_rt(('ng101','ng102'),s1,t18)
   + 0 lpack_rt(('ng101','ng102'),s1,t18)
   + 0 qin_sr_rt(('ng101','ng102'),s1,t18)
   + 0 qout_sr_rt(('ng101','ng102'),s1,t18) + 0 gprodUp(gw1,s1,t18)
   + 0 gprodDn(gw1,s1,t18) + 0 gsin_rt(gs1,s1,t18) + 0 gsout_rt(gs1,s1,t18)
   + 0 gstore_rt(gs1,s1,t18) + 0 pres_rt(ng101,s1,t19)
   + 0 gshed(ng101,s1,t19) + 0 pres_rt(ng102,s1,t19)
   + 0 gshed(ng102,s1,t19) + 0 gflow_sr_rt(('ng101','ng102'),s1,t19)
   + 0 lpack_rt(('ng101','ng102'),s1,t19)
   + 0 qin_sr_rt(('ng101','ng102'),s1,t19)
   + 0 qout_sr_rt(('ng101','ng102'),s1,t19) + 0 gprodUp(gw1,s1,t19)
   + 0 gprodDn(gw1,s1,t19) + 0 gsin_rt(gs1,s1,t19) + 0 gsout_rt(gs1,s1,t19)
   + 0 gstore_rt(gs1,s1,t19) + 0 pres_rt(ng101,s1,t20)
   + 0 gshed(ng101,s1,t20) + 0 pres_rt(ng102,s1,t20)
   + 0 gshed(ng102,s1,t20) + 0 gflow_sr_rt(('ng101','ng102'),s1,t20)
   + 0 lpack_rt(('ng101','ng102'),s1,t20)
   + 0 qin_sr_rt(('ng101','ng102'),s1,t20)
   + 0 qout_sr_rt(('ng101','ng102'),s1,t20) + 0 gprodUp(gw1,s1,t20)
   + 0 gprodDn(gw1,s1,t20) + 0 gsin_rt(gs1,s1,t20) + 0 gsout_rt(gs1,s1,t20)
   + 0 gstore_rt(gs1,s1,t20) + 0 pres_rt(ng101,s1,t21)
   + 0 gshed(ng101,s1,t21) + 0 pres_rt(ng102,s1,t21)
   + 0 gshed(ng102,s1,t21) + 0 gflow_sr_rt(('ng101','ng102'),s1,t21)
   + 0 lpack_rt(('ng101','ng102'),s1,t21)
   + 0 qin_sr_rt(('ng101','ng102'),s1,t21)
   + 0 qout_sr_rt(('ng101','ng102'),s1,t21) + 0 gprodUp(gw1,s1,t21)
   + 0 gprodDn(gw1,s1,t21) + 0 gsin_rt(gs1,s1,t21) + 0 gsout_rt(gs1,s1,t21)
   + 0 gstore_rt(gs1,s1,t21) + 0 pres_rt(ng101,s1,t22)
   + 0 gshed(ng101,s1,t22) + 0 pres_rt(ng102,s1,t22)
   + 0 gshed(ng102,s1,t22) + 0 gflow_sr_rt(('ng101','ng102'),s1,t22)
   + 0 lpack_rt(('ng101','ng102'),s1,t22)
   + 0 qin_sr_rt(('ng101','ng102'),s1,t22)
   + 0 qout_sr_rt(('ng101','ng102'),s1,t22) + 0 gprodUp(gw1,s1,t22)
   + 0 gprodDn(gw1,s1,t22) + 0 gsin_rt(gs1,s1,t22) + 0 gsout_rt(gs1,s1,t22)
   + 0 gstore_rt(gs1,s1,t22) + 0 pres_rt(ng101,s1,t23)
   + 0 gshed(ng101,s1,t23) + 0 pres_rt(ng102,s1,t23)
   + 0 gshed(ng102,s1,t23) + 0 gflow_sr_rt(('ng101','ng102'),s1,t23)
   + 0 lpack_rt(('ng101','ng102'),s1,t23)
   + 0 qin_sr_rt(('ng101','ng102'),s1,t23)
   + 0 qout_sr_rt(('ng101','ng102'),s1,t23) + 0 gprodUp(gw1,s1,t23)
   + 0 gprodDn(gw1,s1,t23) + 0 gsin_rt(gs1,s1,t23) + 0 gsout_rt(gs1,s1,t23)
   + 0 gstore_rt(gs1,s1,t23) + 0 pres_rt(ng101,s1,t24)
   + 0 gshed(ng101,s1,t24) + 0 pres_rt(ng102,s1,t24)
   + 0 gshed(ng102,s1,t24) + 0 gflow_sr_rt(('ng101','ng102'),s1,t24)
   + 0 lpack_rt(('ng101','ng102'),s1,t24)
   + 0 qin_sr_rt(('ng101','ng102'),s1,t24)
   + 0 qout_sr_rt(('ng101','ng102'),s1,t24) + 0 gprodUp(gw1,s1,t24)
   + 0 gprodDn(gw1,s1,t24) + 0 gsin_rt(gs1,s1,t24) + 0 gsout_rt(gs1,s1,t24)
   + 0 gstore_rt(gs1,s1,t24) + 0.0005 pres_rt(ng101,s2,t1)
   + 5000 gshed(ng101,s2,t1) - 0.0005 pres_rt(ng102,s2,t1)
   + 5000 gshed(ng102,s2,t1) + 1.65 gprodUp(gw1,s2,t1)
   - 1.425 gprodDn(gw1,s2,t1) + 0.0005 pres_rt(ng101,s2,t2)
   + 5000 gshed(ng101,s2,t2) - 0.0005 pres_rt(ng102,s2,t2)
   + 5000 gshed(ng102,s2,t2) + 2.2 gprodUp(gw1,s2,t2)
   - 1.9 gprodDn(gw1,s2,t2) + 0 pres_rt(ng101,s2,t3) + 0 gshed(ng101,s2,t3)
   + 0 pres_rt(ng102,s2,t3) + 0 gshed(ng102,s2,t3)
   + 0 gflow_sr_rt(('ng101','ng102'),s2,t3)
   + 0 lpack_rt(('ng101','ng102'),s2,t3)
   + 0 qin_sr_rt(('ng101','ng102'),s2,t3)
   + 0 qout_sr_rt(('ng101','ng102'),s2,t3) + 0 gprodUp(gw1,s2,t3)
   + 0 gprodDn(gw1,s2,t3) + 0 gsin_rt(gs1,s2,t3) + 0 gsout_rt(gs1,s2,t3)
   + 0 gstore_rt(gs1,s2,t3) + 0 pres_rt(ng101,s2,t4) + 0 gshed(ng101,s2,t4)
   + 0 pres_rt(ng102,s2,t4) + 0 gshed(ng102,s2,t4)
   + 0 gflow_sr_rt(('ng101','ng102'),s2,t4)
   + 0 lpack_rt(('ng101','ng102'),s2,t4)
   + 0 qin_sr_rt(('ng101','ng102'),s2,t4)
   + 0 qout_sr_rt(('ng101','ng102'),s2,t4) + 0 gprodUp(gw1,s2,t4)
   + 0 gprodDn(gw1,s2,t4) + 0 gsin_rt(gs1,s2,t4) + 0 gsout_rt(gs1,s2,t4)
   + 0 gstore_rt(gs1,s2,t4) + 0 pres_rt(ng101,s2,t5) + 0 gshed(ng101,s2,t5)
   + 0 pres_rt(ng102,s2,t5) + 0 gshed(ng102,s2,t5)
   + 0 gflow_sr_rt(('ng101','ng102'),s2,t5)
   + 0 lpack_rt(('ng101','ng102'),s2,t5)
   + 0 qin_sr_rt(('ng101','ng102'),s2,t5)
   + 0 qout_sr_rt(('ng101','ng102'),s2,t5) + 0 gprodUp(gw1,s2,t5)
   + 0 gprodDn(gw1,s2,t5) + 0 gsin_rt(gs1,s2,t5) + 0 gsout_rt(gs1,s2,t5)
   + 0 gstore_rt(gs1,s2,t5) + 0 pres_rt(ng101,s2,t6) + 0 gshed(ng101,s2,t6)
   + 0 pres_rt(ng102,s2,t6) + 0 gshed(ng102,s2,t6)
   + 0 gflow_sr_rt(('ng101','ng102'),s2,t6)
   + 0 lpack_rt(('ng101','ng102'),s2,t6)
   + 0 qin_sr_rt(('ng101','ng102'),s2,t6)
   + 0 qout_sr_rt(('ng101','ng102'),s2,t6) + 0 gprodUp(gw1,s2,t6)
   + 0 gprodDn(gw1,s2,t6) + 0 gsin_rt(gs1,s2,t6) + 0 gsout_rt(gs1,s2,t6)
   + 0 gstore_rt(gs1,s2,t6) + 0 pres_rt(ng101,s2,t7) + 0 gshed(ng101,s2,t7)
   + 0 pres_rt(ng102,s2,t7) + 0 gshed(ng102,s2,t7)
   + 0 gflow_sr_rt(('ng101','ng102'),s2,t7)
   + 0 lpack_rt(('ng101','ng102'),s2,t7)
   + 0 qin_sr_rt(('ng101','ng102'),s2,t7)
   + 0 qout_sr_rt(('ng101','ng102'),s2,t7) + 0 gprodUp(gw1,s2,t7)
   + 0 gprodDn(gw1,s2,t7) + 0 gsin_rt(gs1,s2,t7) + 0 gsout_rt(gs1,s2,t7)
   + 0 gstore_rt(gs1,s2,t7) + 0 pres_rt(ng101,s2,t8) + 0 gshed(ng101,s2,t8)
   + 0 pres_rt(ng102,s2,t8) + 0 gshed(ng102,s2,t8)
   + 0 gflow_sr_rt(('ng101','ng102'),s2,t8)
   + 0 lpack_rt(('ng101','ng102'),s2,t8)
   + 0 qin_sr_rt(('ng101','ng102'),s2,t8)
   + 0 qout_sr_rt(('ng101','ng102'),s2,t8) + 0 gprodUp(gw1,s2,t8)
   + 0 gprodDn(gw1,s2,t8) + 0 gsin_rt(gs1,s2,t8) + 0 gsout_rt(gs1,s2,t8)
   + 0 gstore_rt(gs1,s2,t8) + 0 pres_rt(ng101,s2,t9) + 0 gshed(ng101,s2,t9)
   + 0 pres_rt(ng102,s2,t9) + 0 gshed(ng102,s2,t9)
   + 0 gflow_sr_rt(('ng101','ng102'),s2,t9)
   + 0 lpack_rt(('ng101','ng102'),s2,t9)
   + 0 qin_sr_rt(('ng101','ng102'),s2,t9)
   + 0 qout_sr_rt(('ng101','ng102'),s2,t9) + 0 gprodUp(gw1,s2,t9)
   + 0 gprodDn(gw1,s2,t9) + 0 gsin_rt(gs1,s2,t9) + 0 gsout_rt(gs1,s2,t9)
   + 0 gstore_rt(gs1,s2,t9) + 0 pres_rt(ng101,s2,t10)
   + 0 gshed(ng101,s2,t10) + 0 pres_rt(ng102,s2,t10)
   + 0 gshed(ng102,s2,t10) + 0 gflow_sr_rt(('ng101','ng102'),s2,t10)
   + 0 lpack_rt(('ng101','ng102'),s2,t10)
   + 0 qin_sr_rt(('ng101','ng102'),s2,t10)
   + 0 qout_sr_rt(('ng101','ng102'),s2,t10) + 0 gprodUp(gw1,s2,t10)
   + 0 gprodDn(gw1,s2,t10) + 0 gsin_rt(gs1,s2,t10) + 0 gsout_rt(gs1,s2,t10)
   + 0 gstore_rt(gs1,s2,t10) + 0 pres_rt(ng101,s2,t11)
   + 0 gshed(ng101,s2,t11) + 0 pres_rt(ng102,s2,t11)
   + 0 gshed(ng102,s2,t11) + 0 gflow_sr_rt(('ng101','ng102'),s2,t11)
   + 0 lpack_rt(('ng101','ng102'),s2,t11)
   + 0 qin_sr_rt(('ng101','ng102'),s2,t11)
   + 0 qout_sr_rt(('ng101','ng102'),s2,t11) + 0 gprodUp(gw1,s2,t11)
   + 0 gprodDn(gw1,s2,t11) + 0 gsin_rt(gs1,s2,t11) + 0 gsout_rt(gs1,s2,t11)
   + 0 gstore_rt(gs1,s2,t11) + 0 pres_rt(ng101,s2,t12)
   + 0 gshed(ng101,s2,t12) + 0 pres_rt(ng102,s2,t12)
   + 0 gshed(ng102,s2,t12) + 0 gflow_sr_rt(('ng101','ng102'),s2,t12)
   + 0 lpack_rt(('ng101','ng102'),s2,t12)
   + 0 qin_sr_rt(('ng101','ng102'),s2,t12)
   + 0 qout_sr_rt(('ng101','ng102'),s2,t12) + 0 gprodUp(gw1,s2,t12)
   + 0 gprodDn(gw1,s2,t12) + 0 gsin_rt(gs1,s2,t12) + 0 gsout_rt(gs1,s2,t12)
   + 0 gstore_rt(gs1,s2,t12) + 0 pres_rt(ng101,s2,t13)
   + 0 gshed(ng101,s2,t13) + 0 pres_rt(ng102,s2,t13)
   + 0 gshed(ng102,s2,t13) + 0 gflow_sr_rt(('ng101','ng102'),s2,t13)
   + 0 lpack_rt(('ng101','ng102'),s2,t13)
   + 0 qin_sr_rt(('ng101','ng102'),s2,t13)
   + 0 qout_sr_rt(('ng101','ng102'),s2,t13) + 0 gprodUp(gw1,s2,t13)
   + 0 gprodDn(gw1,s2,t13) + 0 gsin_rt(gs1,s2,t13) + 0 gsout_rt(gs1,s2,t13)
   + 0 gstore_rt(gs1,s2,t13) + 0 pres_rt(ng101,s2,t14)
   + 0 gshed(ng101,s2,t14) + 0 pres_rt(ng102,s2,t14)
   + 0 gshed(ng102,s2,t14) + 0 gflow_sr_rt(('ng101','ng102'),s2,t14)
   + 0 lpack_rt(('ng101','ng102'),s2,t14)
   + 0 qin_sr_rt(('ng101','ng102'),s2,t14)
   + 0 qout_sr_rt(('ng101','ng102'),s2,t14) + 0 gprodUp(gw1,s2,t14)
   + 0 gprodDn(gw1,s2,t14) + 0 gsin_rt(gs1,s2,t14) + 0 gsout_rt(gs1,s2,t14)
   + 0 gstore_rt(gs1,s2,t14) + 0 pres_rt(ng101,s2,t15)
   + 0 gshed(ng101,s2,t15) + 0 pres_rt(ng102,s2,t15)
   + 0 gshed(ng102,s2,t15) + 0 gflow_sr_rt(('ng101','ng102'),s2,t15)
   + 0 lpack_rt(('ng101','ng102'),s2,t15)
   + 0 qin_sr_rt(('ng101','ng102'),s2,t15)
   + 0 qout_sr_rt(('ng101','ng102'),s2,t15) + 0 gprodUp(gw1,s2,t15)
   + 0 gprodDn(gw1,s2,t15) + 0 gsin_rt(gs1,s2,t15) + 0 gsout_rt(gs1,s2,t15)
   + 0 gstore_rt(gs1,s2,t15) + 0 pres_rt(ng101,s2,t16)
   + 0 gshed(ng101,s2,t16) + 0 pres_rt(ng102,s2,t16)
   + 0 gshed(ng102,s2,t16) + 0 gflow_sr_rt(('ng101','ng102'),s2,t16)
   + 0 lpack_rt(('ng101','ng102'),s2,t16)
   + 0 qin_sr_rt(('ng101','ng102'),s2,t16)
   + 0 qout_sr_rt(('ng101','ng102'),s2,t16) + 0 gprodUp(gw1,s2,t16)
   + 0 gprodDn(gw1,s2,t16) + 0 gsin_rt(gs1,s2,t16) + 0 gsout_rt(gs1,s2,t16)
   + 0 gstore_rt(gs1,s2,t16) + 0 pres_rt(ng101,s2,t17)
   + 0 gshed(ng101,s2,t17) + 0 pres_rt(ng102,s2,t17)
   + 0 gshed(ng102,s2,t17) + 0 gflow_sr_rt(('ng101','ng102'),s2,t17)
   + 0 lpack_rt(('ng101','ng102'),s2,t17)
   + 0 qin_sr_rt(('ng101','ng102'),s2,t17)
   + 0 qout_sr_rt(('ng101','ng102'),s2,t17) + 0 gprodUp(gw1,s2,t17)
   + 0 gprodDn(gw1,s2,t17) + 0 gsin_rt(gs1,s2,t17) + 0 gsout_rt(gs1,s2,t17)
   + 0 gstore_rt(gs1,s2,t17) + 0 pres_rt(ng101,s2,t18)
   + 0 gshed(ng101,s2,t18) + 0 pres_rt(ng102,s2,t18)
   + 0 gshed(ng102,s2,t18) + 0 gflow_sr_rt(('ng101','ng102'),s2,t18)
   + 0 lpack_rt(('ng101','ng102'),s2,t18)
   + 0 qin_sr_rt(('ng101','ng102'),s2,t18)
   + 0 qout_sr_rt(('ng101','ng102'),s2,t18) + 0 gprodUp(gw1,s2,t18)
   + 0 gprodDn(gw1,s2,t18) + 0 gsin_rt(gs1,s2,t18) + 0 gsout_rt(gs1,s2,t18)
   + 0 gstore_rt(gs1,s2,t18) + 0 pres_rt(ng101,s2,t19)
   + 0 gshed(ng101,s2,t19) + 0 pres_rt(ng102,s2,t19)
   + 0 gshed(ng102,s2,t19) + 0 gflow_sr_rt(('ng101','ng102'),s2,t19)
   + 0 lpack_rt(('ng101','ng102'),s2,t19)
   + 0 qin_sr_rt(('ng101','ng102'),s2,t19)
   + 0 qout_sr_rt(('ng101','ng102'),s2,t19) + 0 gprodUp(gw1,s2,t19)
   + 0 gprodDn(gw1,s2,t19) + 0 gsin_rt(gs1,s2,t19) + 0 gsout_rt(gs1,s2,t19)
   + 0 gstore_rt(gs1,s2,t19) + 0 pres_rt(ng101,s2,t20)
   + 0 gshed(ng101,s2,t20) + 0 pres_rt(ng102,s2,t20)
   + 0 gshed(ng102,s2,t20) + 0 gflow_sr_rt(('ng101','ng102'),s2,t20)
   + 0 lpack_rt(('ng101','ng102'),s2,t20)
   + 0 qin_sr_rt(('ng101','ng102'),s2,t20)
   + 0 qout_sr_rt(('ng101','ng102'),s2,t20) + 0 gprodUp(gw1,s2,t20)
   + 0 gprodDn(gw1,s2,t20) + 0 gsin_rt(gs1,s2,t20) + 0 gsout_rt(gs1,s2,t20)
   + 0 gstore_rt(gs1,s2,t20) + 0 pres_rt(ng101,s2,t21)
   + 0 gshed(ng101,s2,t21) + 0 pres_rt(ng102,s2,t21)
   + 0 gshed(ng102,s2,t21) + 0 gflow_sr_rt(('ng101','ng102'),s2,t21)
   + 0 lpack_rt(('ng101','ng102'),s2,t21)
   + 0 qin_sr_rt(('ng101','ng102'),s2,t21)
   + 0 qout_sr_rt(('ng101','ng102'),s2,t21) + 0 gprodUp(gw1,s2,t21)
   + 0 gprodDn(gw1,s2,t21) + 0 gsin_rt(gs1,s2,t21) + 0 gsout_rt(gs1,s2,t21)
   + 0 gstore_rt(gs1,s2,t21) + 0 pres_rt(ng101,s2,t22)
   + 0 gshed(ng101,s2,t22) + 0 pres_rt(ng102,s2,t22)
   + 0 gshed(ng102,s2,t22) + 0 gflow_sr_rt(('ng101','ng102'),s2,t22)
   + 0 lpack_rt(('ng101','ng102'),s2,t22)
   + 0 qin_sr_rt(('ng101','ng102'),s2,t22)
   + 0 qout_sr_rt(('ng101','ng102'),s2,t22) + 0 gprodUp(gw1,s2,t22)
   + 0 gprodDn(gw1,s2,t22) + 0 gsin_rt(gs1,s2,t22) + 0 gsout_rt(gs1,s2,t22)
   + 0 gstore_rt(gs1,s2,t22) + 0 pres_rt(ng101,s2,t23)
   + 0 gshed(ng101,s2,t23) + 0 pres_rt(ng102,s2,t23)
   + 0 gshed(ng102,s2,t23) + 0 gflow_sr_rt(('ng101','ng102'),s2,t23)
   + 0 lpack_rt(('ng101','ng102'),s2,t23)
   + 0 qin_sr_rt(('ng101','ng102'),s2,t23)
   + 0 qout_sr_rt(('ng101','ng102'),s2,t23) + 0 gprodUp(gw1,s2,t23)
   + 0 gprodDn(gw1,s2,t23) + 0 gsin_rt(gs1,s2,t23) + 0 gsout_rt(gs1,s2,t23)
   + 0 gstore_rt(gs1,s2,t23) + 0 pres_rt(ng101,s2,t24)
   + 0 gshed(ng101,s2,t24) + 0 pres_rt(ng102,s2,t24)
   + 0 gshed(ng102,s2,t24) + 0 gflow_sr_rt(('ng101','ng102'),s2,t24)
   + 0 lpack_rt(('ng101','ng102'),s2,t24)
   + 0 qin_sr_rt(('ng101','ng102'),s2,t24)
   + 0 qout_sr_rt(('ng101','ng102'),s2,t24) + 0 gprodUp(gw1,s2,t24)
   + 0 gprodDn(gw1,s2,t24) + 0 gsin_rt(gs1,s2,t24) + 0 gsout_rt(gs1,s2,t24)
   + 0 gstore_rt(gs1,s2,t24)
Subject To
 PresMax(ng101,s1,t1): pres_rt(ng101,s1,t1) <= 370
 PresMin(ng101,s1,t1): pres_rt(ng101,s1,t1) >= 290
 PresMax(ng101,s2,t1): pres_rt(ng101,s2,t1) <= 370
 PresMin(ng101,s2,t1): pres_rt(ng101,s2,t1) >= 290
 PresMax(ng101,s1,t2): pres_rt(ng101,s1,t2) <= 370
 PresMin(ng101,s1,t2): pres_rt(ng101,s1,t2) >= 290
 PresMax(ng101,s2,t2): pres_rt(ng101,s2,t2) <= 370
 PresMin(ng101,s2,t2): pres_rt(ng101,s2,t2) >= 290
 PresMax(ng102,s1,t1): pres_rt(ng102,s1,t1) <= 370
 PresMin(ng102,s1,t1): pres_rt(ng102,s1,t1) >= 290
 PresMax(ng102,s2,t1): pres_rt(ng102,s2,t1) <= 370
 PresMin(ng102,s2,t1): pres_rt(ng102,s2,t1) >= 290
 PresMax(ng102,s1,t2): pres_rt(ng102,s1,t2) <= 370
 PresMin(ng102,s1,t2): pres_rt(ng102,s1,t2) >= 290
 PresMax(ng102,s2,t2): pres_rt(ng102,s2,t2) <= 370
 PresMin(ng102,s2,t2): pres_rt(ng102,s2,t2) >= 290
 gflow_sr_rt_log(('ng101','ng102'),s1,t1):
   gflow_sr_rt(('ng101','ng102'),s1,t1) <= 100000
 gflow_sr_rt_lim(('ng101','ng102'),s1,t1,1,0):
   - 45.08611289252574 pres_rt(ng101,s1,t1)
   + 35.33776415900666 pres_rt(ng102,s1,t1)
   + gflow_sr_rt(('ng101','ng102'),s1,t1) <= 0
 gflow_sr_rt_log(('ng101','ng102'),s2,t1):
   gflow_sr_rt(('ng101','ng102'),s2,t1) <= 100000
 gflow_sr_rt_lim(('ng101','ng102'),s2,t1,1,0):
   - 45.08611289252574 pres_rt(ng101,s2,t1)
   + 35.33776415900666 pres_rt(ng102,s2,t1)
   + gflow_sr_rt(('ng101','ng102'),s2,t1) <= 0
 gflow_sr_rt_log(('ng101','ng102'),s1,t2):
   gflow_sr_rt(('ng101','ng102'),s1,t2) <= 100000
 gflow_sr_rt_lim(('ng101','ng102'),s1,t2,1,0):
   - 45.08611289252574 pres_rt(ng101,s1,t2)
   + 35.33776415900666 pres_rt(ng102,s1,t2)
   + gflow_sr_rt(('ng101','ng102'),s1,t2) <= 0
 gflow_sr_rt_log(('ng101','ng102'),s2,t2):
   gflow_sr_rt(('ng101','ng102'),s2,t2) <= 100000
 gflow_sr_rt_lim(('ng101','ng102'),s2,t2,1,0):
   - 45.08611289252574 pres_rt(ng101,s2,t2)
   + 35.33776415900666 pres_rt(ng102,s2,t2)
   + gflow_sr_rt(('ng101','ng102'),s2,t2) <= 0
 gprodUp_max(gw1,s1,t1): gprodUp(gw1,s1,t1) <= 93452.48978575399
 gprodDn_max(gw1,s1,t1): gprodDn(gw1,s1,t1) <= 6547.510214246009
 gprodUp_max(gw1,s1,t2): gprodUp(gw1,s1,t2) <= 97840.41028230367
 gprodDn_max(gw1,s1,t2): gprodDn(gw1,s1,t2) <= 2159.589717696332
 gprodUp_max(gw1,s2,t1): gprodUp(gw1,s2,t1) <= 93452.48978575399
 gprodDn_max(gw1,s2,t1): gprodDn(gw1,s2,t1) <= 6547.510214246009
 gprodUp_max(gw1,s2,t2): gprodUp(gw1,s2,t2) <= 97840.41028230367
 gprodDn_max(gw1,s2,t2): gprodDn(gw1,s2,t2) <= 2159.589717696332
 gflow_sr_io_rt(('ng101','ng102'),s1,t1):
   gflow_sr_rt(('ng101','ng102'),s1,t1)
   - 0.5 qin_sr_rt(('ng101','ng102'),s1,t1)
   - 0.5 qout_sr_rt(('ng101','ng102'),s1,t1) = 0
 lpack_def_rt(('ng101','ng102'),s1,t1): - 75 pres_rt(ng101,s1,t1)
   - 75 pres_rt(ng102,s1,t1) + lpack_rt(('ng101','ng102'),s1,t1) = 0
 gflow_sr_io_rt(('ng101','ng102'),s2,t1):
   gflow_sr_rt(('ng101','ng102'),s2,t1)
   - 0.5 qin_sr_rt(('ng101','ng102'),s2,t1)
   - 0.5 qout_sr_rt(('ng101','ng102'),s2,t1) = 0
 lpack_def_rt(('ng101','ng102'),s2,t1): - 75 pres_rt(ng101,s2,t1)
   - 75 pres_rt(ng102,s2,t1) + lpack_rt(('ng101','ng102'),s2,t1) = 0
 gflow_sr_io_rt(('ng101','ng102'),s1,t2):
   gflow_sr_rt(('ng101','ng102'),s1,t2)
   - 0.5 qin_sr_rt(('ng101','ng102'),s1,t2)
   - 0.5 qout_sr_rt(('ng101','ng102'),s1,t2) = 0
 lpack_def_rt(('ng101','ng102'),s1,t2): - 75 pres_rt(ng101,s1,t2)
   - 75 pres_rt(ng102,s1,t2) + lpack_rt(('ng101','ng102'),s1,t2) = 0
 gflow_sr_io_rt(('ng101','ng102'),s2,t2):
   gflow_sr_rt(('ng101','ng102'),s2,t2)
   - 0.5 qin_sr_rt(('ng101','ng102'),s2,t2)
   - 0.5 qout_sr_rt(('ng101','ng102'),s2,t2) = 0
 lpack_def_rt(('ng101','ng102'),s2,t2): - 75 pres_rt(ng101,s2,t2)
   - 75 pres_rt(ng102,s2,t2) + lpack_rt(('ng101','ng102'),s2,t2) = 0
 line_store_rt(('ng101','ng102'),s1,t2):
   - lpack_rt(('ng101','ng102'),s1,t1) + lpack_rt(('ng101','ng102'),s1,t2)
   - qin_sr_rt(('ng101','ng102'),s1,t2)
   + qout_sr_rt(('ng101','ng102'),s1,t2) = 0
 line_store_rt(('ng101','ng102'),s1,t1): lpack_rt(('ng101','ng102'),s1,t1)
   - qin_sr_rt(('ng101','ng102'),s1,t1)
   + qout_sr_rt(('ng101','ng102'),s1,t1) = 49300
 line_store_rt(('ng101','ng102'),s2,t2):
   - lpack_rt(('ng101','ng102'),s2,t1) + lpack_rt(('ng101','ng102'),s2,t2)
   - qin_sr_rt(('ng101','ng102'),s2,t2)
   + qout_sr_rt(('ng101','ng102'),s2,t2) = 0
 line_store_rt(('ng101','ng102'),s2,t1): lpack_rt(('ng101','ng102'),s2,t1)
   - qin_sr_rt(('ng101','ng102'),s2,t1)
   + qout_sr_rt(('ng101','ng102'),s2,t1) = 49300
 lpack_end_max(s1): lpack_rt(('ng101','ng102'),s1,t2) <= 49300
 lpack_end_min(s1): lpack_rt(('ng101','ng102'),s1,t2) >= 49300
 lpack_end_max(s2): lpack_rt(('ng101','ng102'),s2,t2) <= 49300
 lpack_end_min(s2): lpack_rt(('ng101','ng102'),s2,t2) >= 49300
 gstor_def_rt(gs1,s1,t2): - gstore_rt(gs1,s1,t1) - gsin_rt(gs1,s1,t2)
   + gsout_rt(gs1,s1,t2) + gstore_rt(gs1,s1,t2) = 0
 gstor_def_rt(gs1,s1,t1): - gsin_rt(gs1,s1,t1) + gsout_rt(gs1,s1,t1)
   + gstore_rt(gs1,s1,t1) = 0
 gstor_end(gs1,s1): gstore_rt(gs1,s1,t2) >= 0
 gstor_def_rt(gs1,s2,t2): - gstore_rt(gs1,s2,t1) - gsin_rt(gs1,s2,t2)
   + gsout_rt(gs1,s2,t2) + gstore_rt(gs1,s2,t2) = 0
 gstor_def_rt(gs1,s2,t1): - gsin_rt(gs1,s2,t1) + gsout_rt(gs1,s2,t1)
   + gstore_rt(gs1,s2,t1) = 0
 gstor_end(gs1,s2): gstore_rt(gs1,s2,t2) >= 0
 gas_shed_rt(ng101,s1,t1): gshed(ng101,s1,t1) <= 0
 gas_shed_rt(ng101,s1,t2): gshed(ng101,s1,t2) <= 0
 gas_shed_rt(ng102,s1,t1): gshed(ng102,s1,t1) <= 2100
 gas_shed_rt(ng102,s1,t2): gshed(ng102,s1,t2) <= 2010
 gas_shed_rt(ng101,s2,t1): gshed(ng101,s2,t1) <= 0
 gas_shed_rt(ng101,s2,t2): gshed(ng101,s2,t2) <= 0
 gas_shed_rt(ng102,s2,t1): gshed(ng102,s2,t1) <= 2100
 gas_shed_rt(ng102,s2,t2): gshed(ng102,s2,t2) <= 2010
 gas_balance(ng101,s1,t1): gshed(ng101,s1,t1)
   - qin_sr_rt(('ng101','ng102'),s1,t1) + gprodUp(gw1,s1,t1)
   - gprodDn(gw1,s1,t1) = -6547.510214246009
 gas_balance(ng101,s1,t2): gshed(ng101,s1,t2)
   - qin_sr_rt(('ng101','ng102'),s1,t2) + gprodUp(gw1,s1,t2)
   - gprodDn(gw1,s1,t2) = -2159.589717696332
 gas_balance(ng102,s1,t1): gshed(ng102,s1,t1)
   + qout_sr_rt(('ng101','ng102'),s1,t1) - gsin_rt(gs1,s1,t1)
   + gsout_rt(gs1,s1,t1) = 2345.10780808
 gas_balance(ng102,s1,t2): gshed(ng102,s1,t2)
   + qout_sr_rt(('ng101','ng102'),s1,t2) - gsin_rt(gs1,s1,t2)
   + gsout_rt(gs1,s1,t2) = 2261.88515768
 gas_balance(ng101,s2,t1): gshed(ng101,s2,t1)
   - qin_sr_rt(('ng101','ng102'),s2,t1) + gprodUp(gw1,s2,t1)
   - gprodDn(gw1,s2,t1) = -6547.510214246009
 gas_balance(ng101,s2,t2): gshed(ng101,s2,t2)
   - qin_sr_rt(('ng101','ng102'),s2,t2) + gprodUp(gw1,s2,t2)
   - gprodDn(gw1,s2,t2) = -2159.589717696332
 gas_balance(ng102,s2,t1): gshed(ng102,s2,t1)
   + qout_sr_rt(('ng101','ng102'),s2,t1) - gsin_rt(gs1,s2,t1)
   + gsout_rt(gs1,s2,t1) = 2422.55390392
 gas_balance(ng102,s2,t2): gshed(ng102,s2,t2)
   + qout_sr_rt(('ng101','ng102'),s2,t2) - gsin_rt(gs1,s2,t2)
   + gsout_rt(gs1,s2,t2) = 2341.11895976
Bounds
 gsin_rt(gs1,s1,t1) = 0
 gsout_rt(gs1,s1,t1) = 0
 gstore_rt(gs1,s1,t1) = 0
 gsin_rt(gs1,s1,t2) = 0
 gsout_rt(gs1,s1,t2) = 0
 gstore_rt(gs1,s1,t2) = 0
 gsin_rt(gs1,s1,t3) = 0
 gsout_rt(gs1,s1,t3) = 0
 gstore_rt(gs1,s1,t3) = 0
 gsin_rt(gs1,s1,t4) = 0
 gsout_rt(gs1,s1,t4) = 0
 gstore_rt(gs1,s1,t4) = 0
 gsin_rt(gs1,s1,t5) = 0
 gsout_rt(gs1,s1,t5) = 0
 gstore_rt(gs1,s1,t5) = 0
 gsin_rt(gs1,s1,t6) = 0
 gsout_rt(gs1,s1,t6) = 0
 gstore_rt(gs1,s1,t6) = 0
 gsin_rt(gs1,s1,t7) = 0
 gsout_rt(gs1,s1,t7) = 0
 gstore_rt(gs1,s1,t7) = 0
 gsin_rt(gs1,s1,t8) = 0
 gsout_rt(gs1,s1,t8) = 0
 gstore_rt(gs1,s1,t8) = 0
 gsin_rt(gs1,s1,t9) = 0
 gsout_rt(gs1,s1,t9) = 0
 gstore_rt(gs1,s1,t9) = 0
 gsin_rt(gs1,s1,t10) = 0
 gsout_rt(gs1,s1,t10) = 0
 gstore_rt(gs1,s1,t10) = 0
 gsin_rt(gs1,s1,t11) = 0
 gsout_rt(gs1,s1,t11) = 0
 gstore_rt(gs1,s1,t11) = 0
 gsin_rt(gs1,s1,t12) = 0
 gsout_rt(gs1,s1,t12) = 0
 gstore_rt(gs1,s1,t12) = 0
 gsin_rt(gs1,s1,t13) = 0
 gsout_rt(gs1,s1,t13) = 0
 gstore_rt(gs1,s1,t13) = 0
 gsin_rt(gs1,s1,t14) = 0
 gsout_rt(gs1,s1,t14) = 0
 gstore_rt(gs1,s1,t14) = 0
 gsin_rt(gs1,s1,t15) = 0
 gsout_rt(gs1,s1,t15) = 0
 gstore_rt(gs1,s1,t15) = 0
 gsin_rt(gs1,s1,t16) = 0
 gsout_rt(gs1,s1,t16) = 0
 gstore_rt(gs1,s1,t16) = 0
 gsin_rt(gs1,s1,t17) = 0
 gsout_rt(gs1,s1,t17) = 0
 gstore_rt(gs1,s1,t17) = 0
 gsin_rt(gs1,s1,t18) = 0
 gsout_rt(gs1,s1,t18) = 0
 gstore_rt(gs1,s1,t18) = 0
 gsin_rt(gs1,s1,t19) = 0
 gsout_rt(gs1,s1,t19) = 0
 gstore_rt(gs1,s1,t19) = 0
 gsin_rt(gs1,s1,t20) = 0
 gsout_rt(gs1,s1,t20) = 0
 gstore_rt(gs1,s1,t20) = 0
 gsin_rt(gs1,s1,t21) = 0
 gsout_rt(gs1,s1,t21) = 0
 gstore_rt(gs1,s1,t21) = 0
 gsin_rt(gs1,s1,t22) = 0
 gsout_rt(gs1,s1,t22) = 0
 gstore_rt(gs1,s1,t22) = 0
 gsin_rt(gs1,s1,t23) = 0
 gsout_rt(gs1,s1,t23) = 0
 gstore_rt(gs1,s1,t23) = 0
 gsin_rt(gs1,s1,t24) = 0
 gsout_rt(gs1,s1,t24) = 0
 gstore_rt(gs1,s1,t24) = 0
 gsin_rt(gs1,s2,t1) = 0
 gsout_rt(gs1,s2,t1) = 0
 gstore_rt(gs1,s2,t1) = 0
 gsin_rt(gs1,s2,t2) = 0
 gsout_rt(gs1,s2,t2) = 0
 gstore_rt(gs1,s2,t2) = 0
 gsin_rt(gs1,s2,t3) = 0
 gsout_rt(gs1,s2,t3) = 0
 gstore_rt(gs1,s2,t3) = 0
 gsin_rt(gs1,s2,t4) = 0
 gsout_rt(gs1,s2,t4) = 0
 gstore_rt(gs1,s2,t4) = 0
 gsin_rt(gs1,s2,t5) = 0
 gsout_rt(gs1,s2,t5) = 0
 gstore_rt(gs1,s2,t5) = 0
 gsin_rt(gs1,s2,t6) = 0
 gsout_rt(gs1,s2,t6) = 0
 gstore_rt(gs1,s2,t6) = 0
 gsin_rt(gs1,s2,t7) = 0
 gsout_rt(gs1,s2,t7) = 0
 gstore_rt(gs1,s2,t7) = 0
 gsin_rt(gs1,s2,t8) = 0
 gsout_rt(gs1,s2,t8) = 0
 gstore_rt(gs1,s2,t8) = 0
 gsin_rt(gs1,s2,t9) = 0
 gsout_rt(gs1,s2,t9) = 0
 gstore_rt(gs1,s2,t9) = 0
 gsin_rt(gs1,s2,t10) = 0
 gsout_rt(gs1,s2,t10) = 0
 gstore_rt(gs1,s2,t10) = 0
 gsin_rt(gs1,s2,t11) = 0
 gsout_rt(gs1,s2,t11) = 0
 gstore_rt(gs1,s2,t11) = 0
 gsin_rt(gs1,s2,t12) = 0
 gsout_rt(gs1,s2,t12) = 0
 gstore_rt(gs1,s2,t12) = 0
 gsin_rt(gs1,s2,t13) = 0
 gsout_rt(gs1,s2,t13) = 0
 gstore_rt(gs1,s2,t13) = 0
 gsin_rt(gs1,s2,t14) = 0
 gsout_rt(gs1,s2,t14) = 0
 gstore_rt(gs1,s2,t14) = 0
 gsin_rt(gs1,s2,t15) = 0
 gsout_rt(gs1,s2,t15) = 0
 gstore_rt(gs1,s2,t15) = 0
 gsin_rt(gs1,s2,t16) = 0
 gsout_rt(gs1,s2,t16) = 0
 gstore_rt(gs1,s2,t16) = 0
 gsin_rt(gs1,s2,t17) = 0
 gsout_rt(gs1,s2,t17) = 0
 gstore_rt(gs1,s2,t17) = 0
 gsin_rt(gs1,s2,t18) = 0
 gsout_rt(gs1,s2,t18) = 0
 gstore_rt(gs1,s2,t18) = 0
 gsin_rt(gs1,s2,t19) = 0
 gsout_rt(gs1,s2,t19) = 0
 gstore_rt(gs1,s2,t19) = 0
 gsin_rt(gs1,s2,t20) = 0
 gsout_rt(gs1,s2,t20) = 0
 gstore_rt(gs1,s2,t20) = 0
 gsin_rt(gs1,s2,t21) = 0
 gsout_rt(gs1,s2,t21) = 0
 gstore_rt(gs1,s2,t21) = 0
 gsin_rt(gs1,s2,t22) = 0
 gsout_rt(gs1,s2,t22) = 0
 gstore_rt(gs1,s2,t22) = 0
 gsin_rt(gs1,s2,t23) = 0
 gsout_rt(gs1,s2,t23) = 0
 gstore_rt(gs1,s2,t23) = 0
 gsin_rt(gs1,s2,t24) = 0
 gsout_rt(gs1,s2,t24) = 0
 gstore_rt(gs1,s2,t24) = 0
End
